c File: flat50_3_0.col
c
c SOURCE: Joseph Culberson (joe@cs.ualberta.ca)
c DESCRIPTION: Quasi-random coloring problem
c              generated with flatness = 0
c                             probability = 0.139
c                             known coloring = 3
c                             random seed = 1037
c              Creation Date:  Tue Jun  9 11:59:40 1998
c Maximum degree = 8 Minimum degree = 1
c p edge 50 115
c cnf created by edge2cnf
p cnf 150 545
-1 -2 0
-1 -3 0
-2 -3 0
1 2 3 0
-4 -5 0
-4 -6 0
-5 -6 0
4 5 6 0
-7 -8 0
-7 -9 0
-8 -9 0
7 8 9 0
-10 -11 0
-10 -12 0
-11 -12 0
10 11 12 0
-13 -14 0
-13 -15 0
-14 -15 0
13 14 15 0
-16 -17 0
-16 -18 0
-17 -18 0
16 17 18 0
-19 -20 0
-19 -21 0
-20 -21 0
19 20 21 0
-22 -23 0
-22 -24 0
-23 -24 0
22 23 24 0
-25 -26 0
-25 -27 0
-26 -27 0
25 26 27 0
-28 -29 0
-28 -30 0
-29 -30 0
28 29 30 0
-31 -32 0
-31 -33 0
-32 -33 0
31 32 33 0
-34 -35 0
-34 -36 0
-35 -36 0
34 35 36 0
-37 -38 0
-37 -39 0
-38 -39 0
37 38 39 0
-40 -41 0
-40 -42 0
-41 -42 0
40 41 42 0
-43 -44 0
-43 -45 0
-44 -45 0
43 44 45 0
-46 -47 0
-46 -48 0
-47 -48 0
46 47 48 0
-49 -50 0
-49 -51 0
-50 -51 0
49 50 51 0
-52 -53 0
-52 -54 0
-53 -54 0
52 53 54 0
-55 -56 0
-55 -57 0
-56 -57 0
55 56 57 0
-58 -59 0
-58 -60 0
-59 -60 0
58 59 60 0
-61 -62 0
-61 -63 0
-62 -63 0
61 62 63 0
-64 -65 0
-64 -66 0
-65 -66 0
64 65 66 0
-67 -68 0
-67 -69 0
-68 -69 0
67 68 69 0
-70 -71 0
-70 -72 0
-71 -72 0
70 71 72 0
-73 -74 0
-73 -75 0
-74 -75 0
73 74 75 0
-76 -77 0
-76 -78 0
-77 -78 0
76 77 78 0
-79 -80 0
-79 -81 0
-80 -81 0
79 80 81 0
-82 -83 0
-82 -84 0
-83 -84 0
82 83 84 0
-85 -86 0
-85 -87 0
-86 -87 0
85 86 87 0
-88 -89 0
-88 -90 0
-89 -90 0
88 89 90 0
-91 -92 0
-91 -93 0
-92 -93 0
91 92 93 0
-94 -95 0
-94 -96 0
-95 -96 0
94 95 96 0
-97 -98 0
-97 -99 0
-98 -99 0
97 98 99 0
-100 -101 0
-100 -102 0
-101 -102 0
100 101 102 0
-103 -104 0
-103 -105 0
-104 -105 0
103 104 105 0
-106 -107 0
-106 -108 0
-107 -108 0
106 107 108 0
-109 -110 0
-109 -111 0
-110 -111 0
109 110 111 0
-112 -113 0
-112 -114 0
-113 -114 0
112 113 114 0
-115 -116 0
-115 -117 0
-116 -117 0
115 116 117 0
-118 -119 0
-118 -120 0
-119 -120 0
118 119 120 0
-121 -122 0
-121 -123 0
-122 -123 0
121 122 123 0
-124 -125 0
-124 -126 0
-125 -126 0
124 125 126 0
-127 -128 0
-127 -129 0
-128 -129 0
127 128 129 0
-130 -131 0
-130 -132 0
-131 -132 0
130 131 132 0
-133 -134 0
-133 -135 0
-134 -135 0
133 134 135 0
-136 -137 0
-136 -138 0
-137 -138 0
136 137 138 0
-139 -140 0
-139 -141 0
-140 -141 0
139 140 141 0
-142 -143 0
-142 -144 0
-143 -144 0
142 143 144 0
-145 -146 0
-145 -147 0
-146 -147 0
145 146 147 0
-148 -149 0
-148 -150 0
-149 -150 0
148 149 150 0
-73 -1 0
-74 -2 0
-75 -3 0
-115 -1 0
-116 -2 0
-117 -3 0
-130 -1 0
-131 -2 0
-132 -3 0
-148 -1 0
-149 -2 0
-150 -3 0
-61 -4 0
-62 -5 0
-63 -6 0
-106 -4 0
-107 -5 0
-108 -6 0
-55 -7 0
-56 -8 0
-57 -9 0
-76 -7 0
-77 -8 0
-78 -9 0
-85 -7 0
-86 -8 0
-87 -9 0
-100 -7 0
-101 -8 0
-102 -9 0
-109 -7 0
-110 -8 0
-111 -9 0
-115 -7 0
-116 -8 0
-117 -9 0
-145 -7 0
-146 -8 0
-147 -9 0
-73 -10 0
-74 -11 0
-75 -12 0
-124 -10 0
-125 -11 0
-126 -12 0
-52 -13 0
-53 -14 0
-54 -15 0
-73 -13 0
-74 -14 0
-75 -15 0
-88 -13 0
-89 -14 0
-90 -15 0
-91 -13 0
-92 -14 0
-93 -15 0
-130 -13 0
-131 -14 0
-132 -15 0
-136 -13 0
-137 -14 0
-138 -15 0
-76 -16 0
-77 -17 0
-78 -18 0
-91 -16 0
-92 -17 0
-93 -18 0
-100 -16 0
-101 -17 0
-102 -18 0
-103 -16 0
-104 -17 0
-105 -18 0
-118 -16 0
-119 -17 0
-120 -18 0
-64 -19 0
-65 -20 0
-66 -21 0
-88 -19 0
-89 -20 0
-90 -21 0
-94 -19 0
-95 -20 0
-96 -21 0
-139 -19 0
-140 -20 0
-141 -21 0
-148 -19 0
-149 -20 0
-150 -21 0
-142 -22 0
-143 -23 0
-144 -24 0
-148 -22 0
-149 -23 0
-150 -24 0
-52 -25 0
-53 -26 0
-54 -27 0
-58 -25 0
-59 -26 0
-60 -27 0
-64 -25 0
-65 -26 0
-66 -27 0
-91 -25 0
-92 -26 0
-93 -27 0
-109 -25 0
-110 -26 0
-111 -27 0
-115 -25 0
-116 -26 0
-117 -27 0
-52 -28 0
-53 -29 0
-54 -30 0
-121 -28 0
-122 -29 0
-123 -30 0
-139 -28 0
-140 -29 0
-141 -30 0
-58 -31 0
-59 -32 0
-60 -33 0
-64 -31 0
-65 -32 0
-66 -33 0
-70 -31 0
-71 -32 0
-72 -33 0
-118 -31 0
-119 -32 0
-120 -33 0
-145 -31 0
-146 -32 0
-147 -33 0
-100 -34 0
-101 -35 0
-102 -36 0
-103 -34 0
-104 -35 0
-105 -36 0
-124 -34 0
-125 -35 0
-126 -36 0
-136 -34 0
-137 -35 0
-138 -36 0
-142 -34 0
-143 -35 0
-144 -36 0
-55 -37 0
-56 -38 0
-57 -39 0
-88 -37 0
-89 -38 0
-90 -39 0
-94 -37 0
-95 -38 0
-96 -39 0
-106 -37 0
-107 -38 0
-108 -39 0
-112 -37 0
-113 -38 0
-114 -39 0
-133 -37 0
-134 -38 0
-135 -39 0
-148 -37 0
-149 -38 0
-150 -39 0
-55 -40 0
-56 -41 0
-57 -42 0
-76 -40 0
-77 -41 0
-78 -42 0
-85 -40 0
-86 -41 0
-87 -42 0
-88 -40 0
-89 -41 0
-90 -42 0
-103 -40 0
-104 -41 0
-105 -42 0
-118 -40 0
-119 -41 0
-120 -42 0
-133 -40 0
-134 -41 0
-135 -42 0
-145 -40 0
-146 -41 0
-147 -42 0
-139 -43 0
-140 -44 0
-141 -45 0
-58 -46 0
-59 -47 0
-60 -48 0
-82 -46 0
-83 -47 0
-84 -48 0
-85 -46 0
-86 -47 0
-87 -48 0
-106 -46 0
-107 -47 0
-108 -48 0
-142 -46 0
-143 -47 0
-144 -48 0
-73 -49 0
-74 -50 0
-75 -51 0
-82 -49 0
-83 -50 0
-84 -51 0
-85 -49 0
-86 -50 0
-87 -51 0
-91 -49 0
-92 -50 0
-93 -51 0
-142 -49 0
-143 -50 0
-144 -51 0
-112 -52 0
-113 -53 0
-114 -54 0
-118 -52 0
-119 -53 0
-120 -54 0
-121 -52 0
-122 -53 0
-123 -54 0
-118 -55 0
-119 -56 0
-120 -57 0
-127 -55 0
-128 -56 0
-129 -57 0
-124 -58 0
-125 -59 0
-126 -60 0
-127 -61 0
-128 -62 0
-129 -63 0
-133 -61 0
-134 -62 0
-135 -63 0
-106 -64 0
-107 -65 0
-108 -66 0
-124 -64 0
-125 -65 0
-126 -66 0
-142 -64 0
-143 -65 0
-144 -66 0
-133 -67 0
-134 -68 0
-135 -69 0
-103 -70 0
-104 -71 0
-105 -72 0
-109 -70 0
-110 -71 0
-111 -72 0
-139 -70 0
-140 -71 0
-141 -72 0
-145 -70 0
-146 -71 0
-147 -72 0
-115 -73 0
-116 -74 0
-117 -75 0
-130 -79 0
-131 -80 0
-132 -81 0
-103 -82 0
-104 -83 0
-105 -84 0
-109 -82 0
-110 -83 0
-111 -84 0
-115 -82 0
-116 -83 0
-117 -84 0
-106 -85 0
-107 -86 0
-108 -87 0
-115 -85 0
-116 -86 0
-117 -87 0
-127 -85 0
-128 -86 0
-129 -87 0
-103 -88 0
-104 -89 0
-105 -90 0
-133 -88 0
-134 -89 0
-135 -90 0
-148 -88 0
-149 -89 0
-150 -90 0
-109 -94 0
-110 -95 0
-111 -96 0
-112 -94 0
-113 -95 0
-114 -96 0
-121 -94 0
-122 -95 0
-123 -96 0
-106 -97 0
-107 -98 0
-108 -99 0
-121 -97 0
-122 -98 0
-123 -99 0
-124 -97 0
-125 -98 0
-126 -99 0
-145 -97 0
-146 -98 0
-147 -99 0
-115 -100 0
-116 -101 0
-117 -102 0
-127 -100 0
-128 -101 0
-129 -102 0
-136 -100 0
-137 -101 0
-138 -102 0
